# quantidade de alimentos
param na:= 3;
# quantidade de nutrientes
param nn:= 4;
# vetor de minimos nutricionais
param minimos:= 
				1 10
				2 15
				3 10
				4 8;
# vetor de custo
param c:= 
				1 20
				2 10
				3 16;
# matrix nutrientes
param nutri:	1		2		 3 :=
				1			2 		3		7
				2			4		2		1
				3			1		8		1
				4			3		1		1;